c Random 4-CNF over 20 variables and 40 clauses
c Generated with `cnfgen`
c (C) 2012-2016 Massimo Lauria <lauria.massimo@gmail.com>
c https://massimolauria.github.io/cnfgen
c
c COMMAND LINE: cnfgen --output tmp-4-20-40.dimacs --output-format dimacs randkcnf 4 20 40
c
c sdimacs generated by gen-sdimacs
c
p cnf 20 40
r 0.5 1 2 3 4 5 6 7 8 9 10 0
e  11 12 13 14 15 16 17 18 19 20 0
5 9 14 -16 0
2 4 -18 20 0
-8 12 -15 19 0
5 -8 14 19 0
1 -3 6 -7 0
1 7 -13 20 0
-2 3 -4 -6 0
1 -2 -8 -11 0
-1 -6 12 18 0
6 -15 18 -19 0
4 -5 -8 -11 0
-1 -4 -9 17 0
3 11 13 -16 0
7 -9 15 -20 0
7 -9 12 18 0
-2 -5 -9 12 0
-3 7 -10 -19 0
-1 -7 -13 -17 0
5 -13 15 17 0
-8 -10 -16 -17 0
-4 5 13 15 0
2 7 -10 20 0
3 -5 -13 -16 0
4 7 12 -20 0
-1 -3 10 -18 0
-7 -8 15 -18 0
-3 -8 14 -20 0
6 10 14 -15 0
9 -11 -15 17 0
1 6 7 20 0
2 -5 -15 -17 0
-5 12 -14 20 0
8 9 -10 -13 0
1 -2 10 15 0
-8 9 12 13 0
1 -12 -15 -16 0
-5 -8 15 16 0
1 -12 13 -15 0
-4 9 15 -20 0
4 -6 -10 -15 0
